WARNING: for repeatability, setting FPU to use double precision
============================[ Problem Statistics ]=============================
|                                                                             |
|  Number of variables:           100                                         |
|  Number of clauses:             449                                         |
|  Parse time:                   0.00 s                                       |
|  Eliminated clauses:           0.00 Mb                                      |
|  Simplification time:          0.00 s                                       |
|                                                                             |
============================[ Search Statistics ]==============================
| Conflicts |          ORIGINAL         |          LEARNT          | Progress |
|           |    Vars  Clauses Literals |    Limit  Clauses Lit/Cl |          |
===============================================================================
|       100 |      99      439     1313 |      160      100      5 |  0.162 % |
|       250 |      95      424     1268 |      177      133      5 |  4.020 % |
===============================================================================
restarts              : 3
conflicts             : 289            (196198 /sec)
decisions             : 354            (0.00 % random) (240326 /sec)
propagations          : 6733           (4570944 /sec)
conflict literals     : 1369           (24.70 % deleted)
Memory used           : 13.00 MB
CPU time              : 0.001473 s

SATISFIABLE
